sat
(:max-memory          18.43
 :memory              18.34
 :nlsat-arith-var     2
 :nlsat-atoms         9
 :nlsat-bool-var      1
 :nlsat-clauses       9
 :nlsat-propagations  9
 :nlsat-stages        3
 :num-allocs          51218
 :rlimit-count        1591
 :solve-eqs-elim-vars 1
 :solve-eqs-steps     1
 :time                0.00
 :total-time          0.01)
